# Objective value = 3.0163602874493540e+02
x[0] 1
x[1] 0
x[2] 0
x[3] 0
x[4] 1
x[5] 1
x[6] 0
x[7] 0
x[8] 1
x[9] 0
x[10] 1
x[11] 1
x[12] 1
x[13] 1
x[14] 1
x[15] 1
x[16] 0
x[17] 1
x[18] 1
x[19] 1
x[20] 0
x[21] 0
x[22] 1
x[23] 0
x[24] 0
x[25] 0
x[26] 0
x[27] 0
x[28] 0
x[29] 1
x[30] 1
x[31] 1
x[32] 1
x[33] 0
x[34] 0
x[35] 1
x[36] 1
x[37] 0
x[38] 1
x[39] 0
x[40] 0
x[41] 1
x[42] 0
x[43] 1
x[44] 1
x[45] 1
x[46] 1
x[47] 1
x[48] 1
x[49] 1
x[50] 1
x[51] 1
x[52] 0
x[53] 0
x[54] 0
x[55] 1
x[56] 0
x[57] 0
x[58] 0
x[59] 1
x[60] 0
x[61] 1
x[62] 1
x[63] 1
x[64] 0
x[65] 0
x[66] 1
x[67] 1
x[68] 0
x[69] 0
x[70] 1
x[71] 0
x[72] 0
x[73] 0
x[74] 1
x[75] 0
x[76] 1
x[77] 1
x[78] 0
x[79] 1
x[80] 1
x[81] 1
x[82] 0
x[83] 0
x[84] 0
x[85] 0
x[86] 1
x[87] 0
x[88] 0
x[89] 1
x[90] 0
x[91] 0
x[92] 1
x[93] 0
x[94] 1
x[95] 1
x[96] 0
x[97] 0
x[98] 1
x[99] 1
x[100] 1
x[101] 1
x[102] 0
x[103] 1
x[104] 1
x[105] 0
x[106] 0
x[107] 0
x[108] 0
x[109] 0
x[110] 1
x[111] 1
x[112] 1
x[113] 0
x[114] 1
x[115] 0
x[116] 0
x[117] 0
x[118] 1
x[119] 1
x[120] 0
x[121] 1
x[122] 0
x[123] 0
x[124] 0
x[125] 1
x[126] 1
x[127] 1
x[128] 0
x[129] 0
x[130] 0
x[131] 1
x[132] 1
x[133] 1
x[134] 1
x[135] 0
x[136] 0
x[137] 1
x[138] 1
x[139] 1
x[140] 0
x[141] 1
x[142] 1
x[143] 1
x[144] 0
x[145] 1
x[146] 1
x[147] 0
x[148] 1
x[149] 1
x[150] 0
x[151] 0
x[152] 1
x[153] 1
x[154] 0
x[155] 1
x[156] 1
x[157] 0
x[158] 0
x[159] 1
x[160] 0
x[161] 0
x[162] 0
x[163] 1
x[164] 1
x[165] 0
x[166] 0
x[167] 1
x[168] 1
x[169] 1
x[170] 0
x[171] 1
x[172] 0
x[173] 0
x[174] 1
x[175] 1
x[176] 1
x[177] 0
x[178] 0
x[179] 1
x[180] 1
x[181] 0
x[182] 1
x[183] 1
x[184] 0
x[185] 1
x[186] 1
x[187] 0
x[188] 0
x[189] 0
x[190] 1
x[191] 1
x[192] 0
x[193] 1
x[194] 1
x[195] 1
x[196] 0
x[197] 0
x[198] 1
x[199] 0
x[200] 0
x[201] 0
x[202] 0
x[203] 1
x[204] 0
x[205] 0
x[206] 0
x[207] 0
x[208] 0
x[209] 0
x[210] 1
x[211] 1
x[212] 0
x[213] 0
x[214] 0
x[215] 0
x[216] 1
x[217] 1
x[218] 0
x[219] 0
x[220] 0
x[221] 0
x[222] 1
x[223] 0
x[224] 0
x[225] 0
x[226] 1
x[227] 1
x[228] 0
x[229] 1
x[230] 1
x[231] 1
x[232] 0
x[233] 1
x[234] 1
x[235] 1
x[236] 1
x[237] 1
x[238] 0
x[239] 1
x[240] 0
x[241] 1
x[242] 1
x[243] 0
x[244] 0
x[245] 1
x[246] 0
x[247] 0
x[248] 1
x[249] 0
x[250] 1
x[251] 1
x[252] 1
x[253] 1
x[254] 1
x[255] 0
x[256] 0
x[257] 1
x[258] 1
x[259] 0
x[260] 0
x[261] 1
x[262] 0
x[263] 1
x[264] 0
x[265] 1
x[266] 1
x[267] 0
x[268] 1
x[269] 1
x[270] 0
x[271] 1
x[272] 1
x[273] 1
x[274] 0
x[275] 1
x[276] 0
x[277] 0
x[278] 1
x[279] 0
x[280] 1
x[281] 1
x[282] 0
x[283] 0
x[284] 1
x[285] 1
x[286] 1
x[287] 0
x[288] 1
x[289] 0
x[290] 0
x[291] 0
x[292] 1
x[293] 0
x[294] 1
x[295] 0
x[296] 0
x[297] 0
x[298] 0
x[299] 1
x[300] 0
x[301] 1
x[302] 1
x[303] 1
x[304] 0
x[305] 0
x[306] 0
x[307] 1
x[308] 1
x[309] 1
x[310] 0
x[311] 0
x[312] 1
x[313] 0
x[314] 1
x[315] 1
x[316] 0
x[317] 0
x[318] 1
x[319] 1
x[320] 1
x[321] 0
x[322] 0
x[323] 1
x[324] 1
x[325] 0
x[326] 1
x[327] 1
x[328] 1
x[329] 1
x[330] 0
x[331] 0
x[332] 1
x[333] 0
x[334] 0
x[335] 0
x[336] 0
x[337] 1
x[338] 1
x[339] 0
x[340] 0
x[341] 1
x[342] 0
x[343] 0
x[344] 0
x[345] 0
x[346] 0
x[347] 1
x[348] 1
x[349] 1
x[350] 1
x[351] 0
x[352] 0
x[353] 0
x[354] 0
x[355] 1
x[356] 1
x[357] 0
x[358] 1
x[359] 1
x[360] 1
x[361] 0
x[362] 0
x[363] 1
x[364] 0
x[365] 0
x[366] 0
x[367] 0
x[368] 1
x[369] 1
x[370] 1
x[371] 0
x[372] 0
x[373] 0
x[374] 0
x[375] 1
x[376] 1
x[377] 0
x[378] 0
x[379] 1
x[380] 1
x[381] 0
x[382] 1
x[383] 1
x[384] 0
x[385] 0
x[386] 1
x[387] 0
x[388] 1
x[389] 1
x[390] 1
x[391] 1
x[392] 1
x[393] 1
x[394] 1
x[395] 0
x[396] 1
x[397] 1
x[398] 1
x[399] 0
x[400] 1
x[401] 1
x[402] 1
x[403] 1
x[404] 0
x[405] 1
x[406] 1
x[407] 1
x[408] 0
x[409] 1
x[410] 0
x[411] 0
x[412] 1
x[413] 1
x[414] 0
x[415] 1
x[416] 1
x[417] 0
x[418] 0
x[419] 0
x[420] 0
x[421] 0
x[422] 0
x[423] 0
x[424] 1
x[425] 1
x[426] 1
x[427] 0
x[428] 1
x[429] 0
x[430] 0
x[431] 0
x[432] 0
x[433] 0
x[434] 1
x[435] 1
x[436] 0
x[437] 0
x[438] 1
x[439] 1
x[440] 0
x[441] 1
x[442] 0
x[443] 1
x[444] 1
x[445] 1
x[446] 0
x[447] 1
x[448] 1
x[449] 1
x[450] 1
x[451] 0
x[452] 0
x[453] 0
x[454] 1
x[455] 0
x[456] 0
x[457] 1
x[458] 1
x[459] 0
x[460] 0
x[461] 0
x[462] 1
x[463] 1
x[464] 0
x[465] 1
x[466] 0
x[467] 0
x[468] 0
x[469] 0
x[470] 0
x[471] 0
x[472] 1
x[473] 0
x[474] 0
x[475] 0
x[476] 1
x[477] 0
x[478] 0
x[479] 1
x[480] 0
x[481] 1
x[482] 0
x[483] 0
x[484] 1
x[485] 1
x[486] 0
x[487] 1
x[488] 1
x[489] 1
x[490] 0
x[491] 0
x[492] 0
x[493] 1
x[494] 1
x[495] 0
x[496] 1
x[497] 0
x[498] 0
x[499] 0
x[500] 0
x[501] 0
x[502] 0
x[503] 0
x[504] 0
x[505] 0
x[506] 0
x[507] 1
x[508] 1
x[509] 1
x[510] 0
x[511] 0
x[512] 1
x[513] 1
x[514] 1
x[515] 1
x[516] 0
x[517] 0
x[518] 0
x[519] 0
x[520] 1
x[521] 0
x[522] 1
x[523] 0
x[524] 1
x[525] 1
x[526] 1
x[527] 0
x[528] 1
x[529] 0
x[530] 1
x[531] 1
x[532] 1
x[533] 1
x[534] 0
x[535] 1
x[536] 0
x[537] 1
x[538] 1
x[539] 0
x[540] 0
x[541] 0
x[542] 1
x[543] 0
x[544] 1
x[545] 1
x[546] 0
x[547] 0
x[548] 0
x[549] 0
x[550] 1
x[551] 0
x[552] 0
x[553] 1
x[554] 0
x[555] 1
x[556] 0
x[557] 1
x[558] 0
x[559] 0
x[560] 1
x[561] 1
x[562] 1
x[563] 0
x[564] 0
x[565] 1
x[566] 1
x[567] 0
x[568] 1
x[569] 1
x[570] 1
x[571] 1
x[572] 1
x[573] 1
x[574] 1
x[575] 0
x[576] 0
x[577] 0
x[578] 1
x[579] 1
x[580] 1
x[581] 1
x[582] 0
x[583] 1
x[584] 1
x[585] 0
x[586] 0
x[587] 0
x[588] 1
x[589] 0
x[590] 0
x[591] 0
x[592] 1
x[593] 1
x[594] 1
x[595] 1
x[596] 0
x[597] 1
x[598] 0
x[599] 1
x[600] 1
x[601] 0
x[602] 1
x[603] 1
x[604] 0
x[605] 0
x[606] 0
x[607] 0
x[608] 1
x[609] 1
x[610] 0
x[611] 0
x[612] 1
x[613] 0
x[614] 0
x[615] 0
x[616] 1
x[617] 1
x[618] 0
x[619] 0
x[620] 1
x[621] 0
x[622] 0
x[623] 0
x[624] 1
x[625] 0
x[626] 0
x[627] 0
x[628] 0
x[629] 1
x[630] 1
x[631] 1
x[632] 1
x[633] 1
x[634] 0
x[635] 1
x[636] 0
x[637] 0
x[638] 0
x[639] 1
x[640] 1
x[641] 0
x[642] 1
x[643] 0
x[644] 1
x[645] 1
x[646] 0
x[647] 0
x[648] 1
x[649] 1
x[650] 0
x[651] 0
x[652] 1
x[653] 0
x[654] 1
x[655] 1
x[656] 1
x[657] 0
x[658] 1
x[659] 0
x[660] 0
x[661] 0
x[662] 0
x[663] 1
x[664] 0
x[665] 0
x[666] 1
x[667] 1
x[668] 0
x[669] 0
x[670] 0
x[671] 1
x[672] 1
x[673] 1
x[674] 0
x[675] 1
x[676] 0
x[677] 0
x[678] 0
x[679] 0
x[680] 1
x[681] 0
x[682] 1
x[683] 0
x[684] 1
x[685] 1
x[686] 1
x[687] 0
x[688] 1
x[689] 0
x[690] 1
x[691] 0
x[692] 0
x[693] 0
x[694] 1
x[695] 0
x[696] 0
x[697] 0
x[698] 0
x[699] 1
x[700] 0
x[701] 1
x[702] 0
x[703] 1
x[704] 1
x[705] 0
x[706] 0
x[707] 0
x[708] 0
x[709] 1
x[710] 1
x[711] 1
x[712] 0
x[713] 1
x[714] 1
x[715] 1
x[716] 1
x[717] 1
x[718] 1
x[719] 1
x[720] 0
x[721] 1
x[722] 0
x[723] 0
x[724] 0
x[725] 0
x[726] 1
x[727] 1
x[728] 1
x[729] 0
x[730] 1
x[731] 0
x[732] 1
x[733] 1
x[734] 0
x[735] 0
x[736] 1
x[737] 0
x[738] 0
x[739] 0
x[740] 0
x[741] 1
x[742] 0
x[743] 0
x[744] 0
x[745] 0
x[746] 1
x[747] 0
x[748] 0
x[749] 0
x[750] 1
x[751] 1
x[752] 0
x[753] 1
x[754] 0
x[755] 0
x[756] 0
x[757] 0
x[758] 0
x[759] 1
x[760] 0
x[761] 0
x[762] 0
x[763] 1
x[764] 0
x[765] 0
x[766] 0
x[767] 0
x[768] 0
x[769] 0
x[770] 0
x[771] 0
x[772] 0
x[773] 0
x[774] 0
x[775] 1
x[776] 0
x[777] 1
x[778] 0
x[779] 1
x[780] 0
x[781] 0
x[782] 1
x[783] 1
x[784] 1
x[785] 1
x[786] 1
x[787] 0
x[788] 0
x[789] 1
x[790] 1
x[791] 0
x[792] 1
x[793] 1
x[794] 0
x[795] 0
x[796] 1
x[797] 0
x[798] 0
x[799] 1
x[800] 0
x[801] 0
x[802] 0
x[803] 0
x[804] 0
x[805] 0
x[806] 0
x[807] 1
x[808] 1
x[809] 1
x[810] 1
x[811] 1
x[812] 1
x[813] 0
x[814] 0
x[815] 0
x[816] 0
x[817] 0
x[818] 1
x[819] 0
x[820] 0
x[821] 0
x[822] 1
x[823] 1
x[824] 0
x[825] 0
x[826] 1
x[827] 0
x[828] 0
x[829] 1
x[830] 0
x[831] 0
x[832] 0
x[833] 1
x[834] 1
x[835] 0
x[836] 1
x[837] 0
x[838] 0
x[839] 1
x[840] 1
x[841] 0
x[842] 1
x[843] 1
x[844] 1
x[845] 1
x[846] 1
x[847] 1
x[848] 0
x[849] 0
x[850] 0
x[851] 0
x[852] 0
x[853] 1
x[854] 0
x[855] 0
x[856] 0
x[857] 1
x[858] 0
x[859] 1
x[860] 0
x[861] 1
x[862] 0
x[863] 0
x[864] 1
x[865] 0
x[866] 1
x[867] 1
x[868] 0
x[869] 1
x[870] 1
x[871] 0
x[872] 0
x[873] 0
x[874] 1
x[875] 1
x[876] 0
x[877] 1
x[878] 0
x[879] 0
x[880] 1
x[881] 0
x[882] 1
x[883] 1
x[884] 1
x[885] 1
x[886] 1
x[887] 0
x[888] 0
x[889] 1
x[890] 0
x[891] 1
x[892] 1
x[893] 1
x[894] 0
x[895] 0
x[896] 1
x[897] 0
x[898] 0
x[899] 0
x[900] 1
x[901] 0
x[902] 0
x[903] 0
x[904] 1
x[905] 1
x[906] 1
x[907] 0
x[908] 0
x[909] 1
x[910] 1
x[911] 1
x[912] 1
x[913] 1
x[914] 0
x[915] 0
x[916] 0
x[917] 0
x[918] 1
x[919] 1
x[920] 0
x[921] 1
x[922] 1
x[923] 1
x[924] 0
x[925] 0
x[926] 0
x[927] 0
x[928] 0
x[929] 0
x[930] 0
x[931] 0
x[932] 0
x[933] 0
x[934] 1
x[935] 0
x[936] 0
x[937] 0
x[938] 0
x[939] 0
x[940] 1
x[941] 0
x[942] 0
x[943] 1
x[944] 1
x[945] 0
x[946] 1
x[947] 1
x[948] 0
x[949] 1
x[950] 1
x[951] 1
x[952] 0
x[953] 0
x[954] 1
x[955] 1
x[956] 1
x[957] 0
x[958] 0
x[959] 0
x[960] 1
x[961] 0
x[962] 1
x[963] 1
x[964] 0
x[965] 1
x[966] 1
x[967] 1
x[968] 0
x[969] 1
x[970] 1
x[971] 0
x[972] 1
x[973] 1
x[974] 1
x[975] 0
x[976] 1
x[977] 1
x[978] 1
x[979] 0
x[980] 0
x[981] 0
x[982] 0
x[983] 1
x[984] 1
x[985] 0
x[986] 1
x[987] 0
x[988] 1
x[989] 0
x[990] 1
x[991] 0
x[992] 1
x[993] 1
x[994] 0
x[995] 0
x[996] 0
x[997] 0
x[998] 1
x[999] 0
